c ENC1
p cnf 19 42
5 3 0
4 6 0
16 14 15 0
-5 -3 0
-4 -6 0
-16 -14 0
-16 -15 0
-14 -15 0
-5 10 0
-10 5 0
-3 9 0
-9 3 0
-5 -4 1 0
-1 5 0
-1 4 0
-5 -6 2 0
-2 5 0
-2 6 0
-3 -4 8 0
-8 3 0
-8 4 0
-3 -6 7 0
-7 3 0
-7 6 0
-5 -16 13 0
-13 5 0
-13 16 0
-5 -14 11 0
-11 5 0
-11 14 0
-5 -15 12 0
-12 5 0
-12 15 0
-3 -16 17 0
-17 3 0
-17 16 0
-3 -14 18 0
-18 3 0
-18 14 0
-3 -15 19 0
-19 3 0
-19 15 0
